0 3802
2401 3677
4802 3604
7203 3527
9604 3472
12005 3422
14406 3384
16807 3345
19208 3328
21609 3304
24010 3272
26411 3247
28812 3233
31213 3220
33614 3205
36015 3187
38416 3178
40817 3173
43218 3168
45619 3160
48020 3157
50421 3155
55223 3153
57624 3147
60025 3144
62426 3142
64827 3138
67228 3129
175273 3127
177674 3120
180075 3114
196882 3111
199283 3108
489804 3106
492205 3103
523418 3102
525819 3100
528220 3098
540225 3092
542626 3091
557032 3084
559433 3080
561834 3074
583443 3072
609854 3070
612255 3067
662676 3063
